100
128
43
52
59
6
57
50
39
5
11
19
8
31
50
11
38
19
53
29
62
46
10
16
52
62
27
28
2
64
51
19
60
20
29
19
15
41
42
6
37
14
13
29
3
18
17
2
23
33
1
47
48
23
18
13
36
24
12
29
2
1
14
4
54
45
14
14
26
5
31
30
47
27
1
46
28
30
18
40
25
63
30
8
24
55
24
4
4
3
32
20
26
27
39
23
19
28
33
27
46
63